Read MPS format model from file dat/rmp/4node-base_16384_20.mps
Reading time = 1.09 seconds
: 16444 rows, 82056 columns, 2955796 nonzeros
Gurobi Optimizer version 9.0.0 build v9.0.0rc2 (linux64)
Optimize a model with 16444 rows, 82056 columns and 2955796 nonzeros
Model fingerprint: 0xc59a4d60
Coefficient statistics:
  Matrix range     [4e-04, 2e+01]
  Objective range  [4e-03, 1e+04]
  Bounds range     [0e+00, 0e+00]
  RHS range        [1e+00, 8e+01]
Ordering time: 0.02s

Barrier statistics:
 AA' NZ     : 8.300e+05
 Factor NZ  : 1.030e+06 (roughly 50 MBytes of memory)
 Factor Ops : 6.631e+07 (less than 1 second per iteration)
 Threads    : 1

                  Objective                Residual
Iter       Primal          Dual         Primal    Dual     Compl     Time
   0   1.94616062e+07  0.00000000e+00  4.69e+02 2.40e+02  4.12e+04     1s
   1   3.41534374e+05 -8.64322132e+07  7.48e+00 9.35e+02  1.85e+03     1s
   2   4.91077122e+03 -2.06127292e+07  6.22e-04 1.11e+01  2.54e+02     1s
   3   7.49150726e+02 -3.05215098e+06  2.97e-05 1.21e+00  3.75e+01     1s
   4  -2.01705174e+02 -2.93517738e+05  8.70e-08 9.60e-02  3.60e+00     2s
   5  -2.59459568e+02 -2.97008469e+04  3.95e-08 9.73e-03  3.61e-01     2s
   6  -2.59903966e+02 -9.60869926e+02  3.78e-09 1.61e-04  8.58e-03     2s
   7  -3.35083874e+02 -5.62331876e+02  3.46e-08 1.34e-05  2.77e-03     2s
   8  -3.65904144e+02 -4.55330444e+02  9.44e-08 1.31e-06  1.09e-03     3s
   9  -3.85487325e+02 -4.43793162e+02  4.51e-07 7.02e-07  7.11e-04     3s
  10  -3.96634684e+02 -4.33473778e+02  5.24e-07 2.08e-07  4.49e-04     3s
  11  -4.01816073e+02 -4.28839019e+02  5.94e-07 8.71e-08  3.30e-04     3s
  12  -4.03739562e+02 -4.24868425e+02  4.18e-07 2.84e-08  2.58e-04     4s
  13  -4.09616041e+02 -4.21861435e+02  2.84e-06 1.38e-08  1.49e-04     4s
  14  -4.12087557e+02 -4.20640488e+02  1.82e-06 1.08e-08  1.04e-04     4s
  15  -4.13839392e+02 -4.19600487e+02  1.48e-06 6.55e-09  7.02e-05     5s
  16  -4.14019212e+02 -4.19099426e+02  1.41e-06 4.79e-09  6.19e-05     5s
  17  -4.15763020e+02 -4.18727168e+02  7.38e-07 3.46e-09  3.61e-05     5s
  18  -4.16777528e+02 -4.18439914e+02  4.10e-07 2.32e-09  2.03e-05     6s
  19  -4.17128041e+02 -4.18244544e+02  2.11e-07 1.45e-09  1.36e-05     7s
  20  -4.17384070e+02 -4.18148167e+02  1.76e-07 1.05e-09  9.32e-06     7s
  21  -4.17648715e+02 -4.18051423e+02  3.44e-07 5.16e-10  4.91e-06     8s
  22  -4.17658150e+02 -4.18005197e+02  1.02e-06 3.43e-10  4.23e-06     9s
  23  -4.17662127e+02 -4.17983757e+02  2.39e-06 2.58e-10  3.92e-06    10s
  24  -4.17679283e+02 -4.17968675e+02  4.74e-06 1.87e-10  3.53e-06    10s
  25  -4.17718022e+02 -4.17957530e+02  3.93e-06 1.35e-10  2.92e-06    11s
  26  -4.17719928e+02 -4.17947098e+02  2.46e-06 9.20e-11  2.77e-06    11s
  27  -4.17720318e+02 -4.17945678e+02  5.69e-06 8.60e-11  2.75e-06    12s
  28  -4.17725212e+02 -4.17944567e+02  2.41e-06 8.16e-11  2.67e-06    12s
  29  -4.17725662e+02 -4.17943025e+02  3.72e-06 7.51e-11  2.65e-06    12s
  30  -4.17725880e+02 -4.17941344e+02  3.09e-06 6.65e-11  2.63e-06    12s
  31  -4.17726085e+02 -4.17933873e+02  5.01e-06 2.62e-11  2.53e-06    13s
  32  -4.17726208e+02 -4.17933687e+02  7.68e-06 2.59e-11  2.53e-06    13s
  33  -4.17727511e+02 -4.17933225e+02  9.56e-06 2.51e-11  2.51e-06    13s
  34  -4.17727816e+02 -4.17932760e+02  1.34e-05 2.38e-11  2.50e-06    13s
  35  -4.17728963e+02 -4.17932609e+02  1.27e-05 2.29e-11  2.48e-06    14s
  36  -4.17729444e+02 -4.17932159e+02  1.97e-05 1.99e-11  2.47e-06    14s
  37  -4.17730488e+02 -4.17931791e+02  1.98e-05 1.85e-11  2.45e-06    14s
  38  -4.17730381e+02 -4.17931739e+02  3.12e-05 1.73e-11  2.45e-06    14s
  39  -4.17730253e+02 -4.17931621e+02  5.07e-05 1.77e-11  2.44e-06    15s
  40  -4.17730092e+02 -4.17931553e+02  7.77e-05 1.75e-11  2.44e-06    15s
  41  -4.17729809e+02 -4.17931526e+02  1.22e-04 1.72e-11  2.43e-06    15s
  42  -4.17728945e+02 -4.17931531e+02  2.33e-04 1.70e-11  2.42e-06    15s
  43  -4.17725365e+02 -4.17931514e+02  5.55e-04 1.69e-11  2.39e-06    15s
  44  -4.17713223e+02 -4.17931655e+02  1.29e-03 1.69e-11  2.39e-06    16s
  45  -4.17713830e+02 -4.17931612e+02  1.25e-03 1.69e-11  2.39e-06    16s
  46  -4.17711166e+02 -4.17931626e+02  1.41e-03 1.69e-11  2.39e-06    16s
  47  -4.17713260e+02 -4.17931573e+02  1.29e-03 1.68e-11  2.38e-06    16s
  48  -4.17711318e+02 -4.17931593e+02  1.42e-03 1.68e-11  2.38e-06    16s
  49  -4.17710131e+02 -4.17931607e+02  1.50e-03 1.68e-11  2.38e-06    17s
  50  -4.17712362e+02 -4.17931541e+02  1.36e-03 1.68e-11  2.38e-06    17s
  51  -4.17714634e+02 -4.17931525e+02  1.22e-03 1.68e-11  2.38e-06    17s

Barrier performed 51 iterations in 17.11 seconds
Sub-optimal termination - objective -4.17648715e+02

Solve time: 17.116991068
Barrier iterations: 51
